c ---- [ banner ] ------------------------------------------------------------
c
c Kissat SAT Solver
c 
c Copyright (c) 2021-2023 Armin Biere University of Freiburg
c Copyright (c) 2019-2021 Armin Biere Johannes Kepler University Linz
c 
c Version 3.1.1 unknown
c gcc (Ubuntu 9.4.0-1ubuntu1~20.04.2) 9.4.0 -W -Wall -O3 -DNDEBUG
c Mon Feb 26 18:18:52 CET 2024 Linux OptiPlex-7080 5.15.0-88-generic x86_64
c
c ---- [ parsing ] -----------------------------------------------------------
c
c opened and reading DIMACS file:
c
c   tseitin-d6-10.cnf
c
c parsed 'p cnf 30 320' header
c closing input after reading 7063 bytes (7 KB)
c finished parsing after 0.00 seconds
c
c ---- [ solving ] -----------------------------------------------------------
c
c  seconds switched conflicts irredundant variables
c         MB reductions redundant   trail  remaining
c          level restarts   binary     glue
c
c *  0.00  3 0 0 0  0   0   0   0 320 0% 0 30 97%
c {  0.00  4 0 0 0  0   0   0   0 320 0% 0 30 97%
c -  0.01  4 18 0 1 124 1002 243   0 320 92% 9 30 97%
c }  0.01  4 18 1 1 124 1002 243   0 320 92% 9 30 97%
c [  0.01  4 0 1 1 124 1002 243   0 320 0% 0 30 97%
c B  0.01  4 0 1 1 124 1002 243   0 320 0% 0 30 97%
c ]  0.01  4 16 2 1 124 1945 759   0 320 81% 10 30 97%
c {  0.01  4 18 2 1 124 1945 759   0 320 92% 9 30 97%
c -  0.02  4 18 2 2 141 2002 376   0 320 92% 9 30 97%
c }  0.02  4 16 3 2 391 2947 1103   0 320 86% 11 30 97%
c [  0.02  4 16 3 2 391 2947 1103   0 320 81% 10 30 97%
c W  0.02  4 16 3 2 391 2947 1103   0 320 81% 10 30 97%
c ^  0.02  4 16 3 2 391 3173 1215   0 320 81% 10 30 97%
c -  0.02  4 16 3 3 391 3418 423   0 320 80% 10 30 97%
c ]  0.03  4 15 4 3 392 5048 1423   0 320 78% 10 30 97%
c {  0.03  4 16 4 3 392 5048 1423   0 320 86% 11 30 97%
c -  0.03  4 16 4 4 392 5151 580   0 320 86% 11 30 97%
c ^  0.04  4 16 4 4 392 6345 1248   0 320 83% 11 30 97%
c -  0.04  4 16 4 5 627 7152 655   0 320 83% 11 30 97%
c }  0.04  4 16 5 5 706 7400 777   0 320 82% 11 30 97%
c
c  seconds  switched conflicts   irredundant variables
c         MB reductions   redundant     trail   remaining
c          level restarts      binary       glue
c
c [  0.04  4 15 5 5 706 7400 777   0 320 78% 10 30 97%
c I  0.04  4 15 5 5 706 7400 777   0 320 78% 10 30 97%
c -  0.05  4 15 5 6 707 9390 666   0 320 77% 10 30 97%
c ]  0.05  4 15 6 6 707 9929 967   0 320 77% 10 30 97%
c {  0.05  4 16 6 6 707 9929 967   0 320 82% 11 30 97%
c -  0.06  4 16 6 7 781 11839 763   0 320 81% 11 30 97%
c ^  0.06  5 15 6 7 781 13223 1615   0 320 80% 10 30 97%
c }  0.06  5 15 7 7 781 13998 2023   0 320 81% 10 30 97%
c [  0.06  5 15 7 7 781 13998 2023   0 320 77% 10 30 97%
c B  0.06  5 15 7 7 781 13998 2023   0 320 77% 10 30 97%
c -  0.06  5 15 7 8 781 14485 820   0 320 76% 10 30 97%
c v  0.07  5 14 7 8 781 15570 1464   0 320 76% 10 30 97%
c -  0.08  5 14 7 9 783 17313 1048   0 320 76% 9 30 97%
c ]  0.08  5 14 8 9 783 18815 1829   0 320 76% 9 30 97%
c {  0.08  5 15 8 9 783 18815 1829   0 320 81% 10 30 97%
c -  0.08  5 15 8 10 783 20314 1256   0 320 79% 10 30 97%
c v  0.09  5 15 8 10 783 20912 1612   0 320 79% 10 30 97%
c -  0.10  5 15 8 11 1529 23477 1177   0 320 79% 10 30 97%
c ^  0.10  5 15 8 11 1554 24298 1672   0 320 79% 10 30 97%
c }  0.10  5 15 9 11 1742 24974 2040   0 320 79% 11 30 97%
c
c  seconds  switched    conflicts    irredundant variables
c         MB  reductions     redundant      trail  remaining
c          level   restarts        binary      glue
c
c [  0.10  5 14 9 11 1742 24974 2040   0 320 76% 9 30 97%
c W  0.10  5 14 9 11 1742 24974 2040   0 320 76% 9 30 97%
c -  0.11  5 14 9 12 1742 26794 1030   0 320 75% 9 30 97%
c v  0.11  5 14 9 12 1743 27153 1219   0 320 76% 9 30 97%
c -  0.12  5 14 9 13 1744 30258 1335   0 320 75% 9 30 97%
c O  0.12  5 14 9 13 1745 32502 2708   0 320 75% 9 30 97%
c ]  0.12  5 14 10 13 1745 33147 3164   0 320 75% 9 30 97%
c {  0.12  5 15 10 13 1745 33147 3164   0 320 79% 11 30 97%
c -  0.13  5 15 10 14 1954 33865 1620   0 320 79% 11 30 97%
c v  0.13  5 15 10 14 1979 34314 1882   0 320 79% 11 30 97%
c -  0.15  5 15 10 15 1979 37607 2097   0 320 79% 10 30 97%
c ^  0.16  5 14 10 15 1979 40035 4523   0 320 80% 10 30 97%
c -  0.16  5 14 10 16 2380 41479 2583   0 320 80% 10 30 97%
c }  0.16  5 15 11 16 2454 41775 2750   0 320 80% 10 30 97%
c [  0.16  5 14 11 16 2454 41775 2750   0 320 75% 9 30 97%
c B  0.16  5 14 11 16 2454 42263 3155   0 320 75% 9 30 97%
c u  0.17  5 14 11 16 2454 42421 3261   0 320 75% 9 30 97%
c v  0.17  5 14 11 16 2454 42421 3261   0 320 75% 9 30 97%
c -  0.18  5 14 11 17 2456 45482 2935   0 320 75% 9 30 97%
c -  0.19  5 14 11 18 2458 49606 3488   0 320 75% 9 30 97%
c
c  seconds   switched    conflicts    irredundant variables
c         MB   reductions     redundant      trail  remaining
c          level    restarts        binary      glue
c
c v  0.21  5 14 11 18 2459 51499 4770   0 320 75% 9 30 97%
c ]  0.21  5 14 12 18 2459 51501 4772   0 320 75% 9 30 97%
c {  0.21  5 15 12 18 2459 51501 4772   0 320 80% 10 30 97%
c -  0.22  5 15 12 19 3084 53849 3608   0 320 79% 10 30 97%
c -  0.24  5 14 12 20 3197 58208 3796   0 320 79% 10 30 97%
c !  0.24  5 14 12 20 3197 60866 5782   0 320 79% 10 30 97%
c u  0.25  5 14 12 20 3382 61558 6135   0 320 79% 10 30 97%
c v  0.26  5 14 12 20 3382 61558 6135   0 320 79% 10 30 97%
c w  0.26  5 14 12 20 3382 61558 6135   0 320 79% 10 30 97%
c -  0.27  5 14 12 21 3566 62681 4296   0 320 79% 10 30 97%
c }  0.27  5 14 13 21 3566 62981 4575   0 320 79% 10 30 97%
c [  0.27  5 14 13 21 3566 62981 4575   0 320 75% 9 30 97%
c W  0.27  5 14 13 21 3566 62981 4575   0 320 75% 9 30 97%
c -  0.28  5 13 13 22 3568 67264 4194   0 320 75% 9 30 97%
c -  0.29  5 13 13 23 3570 71954 3836   0 320 75% 9 30 97%
c v  0.30  5 13 13 23 3571 72628 4270   0 320 75% 9 30 97%
c w  0.30  5 13 13 23 3571 72628 4273   0 317 75% 9 30 97%
c ]  0.32  5 13 14 23 3572 76017 6482   0 317 75% 9 30 97%
c {  0.32  5 14 14 23 3572 76017 6482   0 317 79% 10 30 97%
c -  0.32  5 14 14 24 3774 76749 4261   0 317 79% 10 30 97%
c
c  seconds   switched    conflicts    irredundant variables
c         MB   reductions     redundant      trail   remaining
c          level    restarts        binary       glue
c
c -  0.34  5 14 14 25 3934 81648 4749   0 317 78% 10 30 97%
c u  0.35  5 13 14 25 3934 84680 7105   0 317 78% 9 30 97%
c v  0.36  6 13 14 25 3934 84680 7105   0 317 78% 9 30 97%
c -  0.38  6 14 14 26 4481 86648 5062   0 317 78% 9 30 97%
c }  0.39  6 14 15 26 5213 90733 7612   0 317 78% 9 30 97%
c [  0.39  6 13 15 26 5213 90733 7612   0 317 75% 9 30 97%
c I  0.39  6 13 15 26 5213 90733 7612   0 317 75% 9 30 97%
c -  0.40  6 13 15 27 5213 91748 5069   0 317 75% 9 30 97%
c -  0.42  6 13 15 28 5216 96947 4972   0 317 75% 9 30 97%
c u  0.42  6 13 15 28 5216 97769 5501   0 317 75% 9 30 97%
c v  0.43  6 13 15 28 5216 97769 5501   0 317 75% 9 30 97%
c ]  0.44  6 13 16 28 5218 100549 7650   0 317 75% 9 30 97%
c {  0.44  6 14 16 28 5218 100549 7650   0 317 78% 9 30 97%
c -  0.45  5 14 16 29 5654 102238 4602   0 317 78% 10 30 97%
c -  0.47  5 14 16 30 6011 107624 5186   0 317 78% 9 30 97%
c u  0.49  5 13 16 30 6011 111908 8538   0 317 77% 9 30 97%
c v  0.49  5 13 16 30 6011 111908 8538   0 317 77% 9 30 97%
c -  0.50  6 13 16 31 6093 113102 5856   0 317 77% 9 30 97%
c -  0.52  5 13 16 32 6093 118669 6798   0 317 77% 9 30 97%
c }  0.52  5 13 17 32 6093 118886 6988   0 317 77% 9 30 97%
c
c  seconds   switched    conflicts     irredundant variables
c         MB   reductions      redundant      trail  remaining
c          level    restarts         binary      glue
c
c [  0.52  5 13 17 32 6093 118886 6988   0 317 75% 9 30 97%
c B  0.52  5 13 17 32 6093 118886 6988   0 317 75% 9 30 97%
c -  0.55  5 13 17 33 6095 124325 6939   0 317 74% 9 30 97%
c ]  0.56  5 13 18 33 6097 126456 8813   0 317 74% 9 30 97%
c {  0.56  5 13 18 33 6097 126456 8813   0 317 77% 9 30 97%
c u  0.57  5 13 18 33 6097 127114 9345   0 317 77% 9 30 97%
c v  0.57  5 13 18 33 6097 127114 9345   0 317 77% 9 30 97%
c -  0.60  6 13 18 34 6590 130070 6849   0 317 77% 9 30 97%
c -  0.63  5 13 18 35 6690 135900 7010   0 317 76% 9 30 97%
c -  0.66  5 12 18 36 6769 141816 7571   0 317 76% 9 30 97%
c u  0.67  5 12 18 36 6769 143401 8754   0 317 76% 9 30 97%
c v  0.68  5 12 18 36 6769 143401 8754   0 317 76% 9 30 97%
c -  0.70  5 12 18 37 6823 147817 7704   0 317 76% 9 30 97%
c }  0.71  5 12 19 37 6823 148801 8535   0 317 76% 9 30 97%
c [  0.71  5 13 19 37 6823 148801 8535   0 317 74% 9 30 97%
c W  0.71  5 13 19 37 6823 148801 8535   0 317 74% 9 30 97%
c -  0.73  5 13 19 38 6825 153901 7336   0 317 74% 9 30 97%
c -  0.76  6 13 19 39 6829 160066 7101   0 317 74% 9 30 97%
c u  0.77  6 13 19 39 6829 160782 7716   0 317 74% 9 30 97%
c v  0.77  6 13 19 39 6829 160782 7716   0 317 74% 9 30 97%
c
c  seconds   switched    conflicts     irredundant variables
c         MB   reductions      redundant      trail  remaining
c          level    restarts         binary      glue
c
c -  0.80  5 12 19 40 6831 166311 7660   0 317 73% 9 30 97%
c ]  0.81  6 12 20 40 6832 169417 9887   0 317 73% 9 30 97%
c {  0.81  6 12 20 40 6832 169417 9887   0 317 76% 9 30 97%
c -  0.84  5 12 20 41 6832 172636 9215   0 317 75% 9 30 97%
c s  0.85  5 12 20 41 6832 174677 11165   1 309 75% 9 30 97%
c -  0.88  6 12 20 42 6877 179040 11226   2 309 75% 8 30 97%
c u  0.89  6 12 20 42 6877 179271 11383  73 309 75% 8 30 97%
c v  0.89  5 12 20 42 6877 179271 11276 180 309 75% 8 30 97%
c t  0.90  6 12 20 42 6877 179271 11276   2 309 75% 8 30 97%
c -  0.94  6 11 20 43 6892 185520 12096   3 309 74% 8 30 97%
c i  0.95  6 11 20 43 6892 187059 13595  15 309 74% 8 29 94%
c i  0.97  6 11 20 43 6911 190585 16894  26 309 74% 8 28 90%
c -  0.98  6 11 20 44 6911 192078 5975   3 309 74% 8 28 90%
c i  1.01  6 11 20 44 6911 196087 9502  15 309 74% 8 27 87%
c }  1.01  6 11 21 44 6911 196157 9542  15 309 74% 8 27 87%
c [  1.01  6 12 21 44 6911 196157 9542  15 309 73% 9 27 87%
c O  1.01  6 12 21 44 6911 196157 9542  15 309 73% 9 27 87%
c i  1.01  6 12 21 44 6911 196619 9948  23 309 73% 9 26 84%
c i  1.01  6 12 21 44 6911 197069 10290  31 309 73% 9 25 81%
c i  1.02  5 12 21 44 6911 197273 10459  37 309 72% 9 24 77%
c
c  seconds   switched    conflicts      irredundant variables
c         MB   reductions       redundant      trail  remaining
c          level    restarts          binary      glue
c
c i  1.02  5 12 21 44 6911 197362 10520  42 309 72% 9 22 71%
c i  1.02  5 12 21 44 6912 197392 10535  45 309 72% 9 21 68%
c i  1.02  5 12 21 44 6912 197418 10540  47 309 72% 9 19 61%
c i  1.02  5 12 21 44 6912 197429 10538  48 309 72% 9 15 48%
c ]  1.02  5 12 21 44 6912 197432 10538  49 309 72% 9 11 35%
c 0  1.02  5 11 21 44 6912 197432 10538  49 309 74% 8 11 35%
c
c ---- [ result ] ------------------------------------------------------------
c
s UNSATISFIABLE
c
c ---- [ profiling ] ---------------------------------------------------------
c
c           0.80   78.82 %  search
c           0.53   52.17 %  focused
c           0.27   26.64 %  stable
c           0.21   21.02 %  simplify
c           0.21   20.29 %  probe
c           0.12   11.80 %  vivify
c           0.08    7.55 %  sweep
c           0.02    1.94 %  reduce
c           0.01    0.82 %  substitute
c           0.00    0.40 %  eliminate
c           0.00    0.32 %  walking
c           0.00    0.15 %  parse
c           0.00    0.10 %  transitive
c           0.00    0.03 %  subsume
c           0.00    0.01 %  backbone
c           0.00    0.00 %  warmup
c =============================================
c           1.02  100.00 %  total
c
c ---- [ statistics ] --------------------------------------------------------
c
c conflicts:                           197432           193747.12 per second
c decisions:                           310502                1.57 per conflict
c jumped_reasons:                           5                0 %  propagations
c propagations:                        995913           977325    per second
c queue_decisions:                     227810               73 %  decision
c random_decisions:                      4377                1 %  decision
c random_sequences:                        56             3526    interval
c reductions:                              44             4487    interval
c rephased:                                12            16453    interval
c restarts:                              6912               28.56 interval
c score_decisions:                      78315               25 %  decision
c strengthened:                            28                0 %  checks
c subsumed:                                 8                0 %  checks
c switched:                                21             9402    interval
c vivified:                              6355               11 %  checks
c vivify_checks:                        58494             2785    per vivify
c vivify_units:                             0                0 %  variables
c walk_improved:                            4              100 %  walks
c walks:                                    4            49358    interval
c
c ---- [ resources ] ---------------------------------------------------------
c
c maximum-resident-set-size:          6406144 bytes          6 MB
c process-time:                             1s               1.02 seconds
c
c ---- [ shutting down ] -----------------------------------------------------
c
c exit 20
